(set-logic QF_LRA)
(declare-fun X0 () Real )
(declare-fun Y0 () Real )
(declare-fun X1 () Real )
(declare-fun Y1 () Real )
(declare-fun X2 () Real )
(declare-fun Y2 () Real )
(declare-fun X3 () Real )
(declare-fun Y3 () Real )
(declare-fun X4 () Real )
(declare-fun Y4 () Real )
(declare-fun X5 () Real )
(declare-fun Y5 () Real )
(declare-fun X6 () Real )
(declare-fun Y6 () Real )
(declare-fun X7 () Real )
(declare-fun Y7 () Real )
(declare-fun X8 () Real )
(declare-fun Y8 () Real )
(declare-fun X9 () Real )
(declare-fun Y9 () Real )
(declare-fun X10 () Real )
(declare-fun Y10 () Real )
(declare-fun X11 () Real )
(declare-fun Y11 () Real )
(declare-fun X12 () Real )
(declare-fun Y12 () Real )
(declare-fun X13 () Real )
(declare-fun Y13 () Real )
(declare-fun X14 () Real )
(declare-fun Y14 () Real )
(declare-fun Z () Real )
(declare-fun k () Real )
(assert (let
(( $goal (>= Z k) ))
(let
((
$phi ( and 
( or ( <= ( + X0 88 ) X1 )  ( <= ( + X1 35 ) X0 )  ( <= ( + Y0 77 ) Y1 )  ( <= ( + Y1 77 ) Y0 )  )
( or ( <= ( + X0 88 ) X2 )  ( <= ( + X2 44 ) X0 )  ( <= ( + Y0 77 ) Y2 )  ( <= ( + Y2 34 ) Y0 )  )
( or ( <= ( + X0 88 ) X3 )  ( <= ( + X3 44 ) X0 )  ( <= ( + Y0 77 ) Y3 )  ( <= ( + Y3 15 ) Y0 )  )
( or ( <= ( + X0 88 ) X4 )  ( <= ( + X4 15 ) X0 )  ( <= ( + Y0 77 ) Y4 )  ( <= ( + Y4 55 ) Y0 )  )
( or ( <= ( + X0 88 ) X5 )  ( <= ( + X5 94 ) X0 )  ( <= ( + Y0 77 ) Y5 )  ( <= ( + Y5 60 ) Y0 )  )
( or ( <= ( + X0 88 ) X6 )  ( <= ( + X6 17 ) X0 )  ( <= ( + Y0 77 ) Y6 )  ( <= ( + Y6 11 ) Y0 )  )
( or ( <= ( + X0 88 ) X7 )  ( <= ( + X7 48 ) X0 )  ( <= ( + Y0 77 ) Y7 )  ( <= ( + Y7 13 ) Y0 )  )
( or ( <= ( + X0 88 ) X8 )  ( <= ( + X8 65 ) X0 )  ( <= ( + Y0 77 ) Y8 )  ( <= ( + Y8 35 ) Y0 )  )
( or ( <= ( + X0 88 ) X9 )  ( <= ( + X9 6 ) X0 )  ( <= ( + Y0 77 ) Y9 )  ( <= ( + Y9 37 ) Y0 )  )
( or ( <= ( + X0 88 ) X10 )  ( <= ( + X10 70 ) X0 )  ( <= ( + Y0 77 ) Y10 )  ( <= ( + Y10 14 ) Y0 )  )
( or ( <= ( + X0 88 ) X11 )  ( <= ( + X11 20 ) X0 )  ( <= ( + Y0 77 ) Y11 )  ( <= ( + Y11 80 ) Y0 )  )
( or ( <= ( + X0 88 ) X12 )  ( <= ( + X12 9 ) X0 )  ( <= ( + Y0 77 ) Y12 )  ( <= ( + Y12 13 ) Y0 )  )
( or ( <= ( + X0 88 ) X13 )  ( <= ( + X13 61 ) X0 )  ( <= ( + Y0 77 ) Y13 )  ( <= ( + Y13 32 ) Y0 )  )
( or ( <= ( + X0 88 ) X14 )  ( <= ( + X14 26 ) X0 )  ( <= ( + Y0 77 ) Y14 )  ( <= ( + Y14 98 ) Y0 )  )
( or ( <= ( + X1 35 ) X2 )  ( <= ( + X2 44 ) X1 )  ( <= ( + Y1 77 ) Y2 )  ( <= ( + Y2 34 ) Y1 )  )
( or ( <= ( + X1 35 ) X3 )  ( <= ( + X3 44 ) X1 )  ( <= ( + Y1 77 ) Y3 )  ( <= ( + Y3 15 ) Y1 )  )
( or ( <= ( + X1 35 ) X4 )  ( <= ( + X4 15 ) X1 )  ( <= ( + Y1 77 ) Y4 )  ( <= ( + Y4 55 ) Y1 )  )
( or ( <= ( + X1 35 ) X5 )  ( <= ( + X5 94 ) X1 )  ( <= ( + Y1 77 ) Y5 )  ( <= ( + Y5 60 ) Y1 )  )
( or ( <= ( + X1 35 ) X6 )  ( <= ( + X6 17 ) X1 )  ( <= ( + Y1 77 ) Y6 )  ( <= ( + Y6 11 ) Y1 )  )
( or ( <= ( + X1 35 ) X7 )  ( <= ( + X7 48 ) X1 )  ( <= ( + Y1 77 ) Y7 )  ( <= ( + Y7 13 ) Y1 )  )
( or ( <= ( + X1 35 ) X8 )  ( <= ( + X8 65 ) X1 )  ( <= ( + Y1 77 ) Y8 )  ( <= ( + Y8 35 ) Y1 )  )
( or ( <= ( + X1 35 ) X9 )  ( <= ( + X9 6 ) X1 )  ( <= ( + Y1 77 ) Y9 )  ( <= ( + Y9 37 ) Y1 )  )
( or ( <= ( + X1 35 ) X10 )  ( <= ( + X10 70 ) X1 )  ( <= ( + Y1 77 ) Y10 )  ( <= ( + Y10 14 ) Y1 )  )
( or ( <= ( + X1 35 ) X11 )  ( <= ( + X11 20 ) X1 )  ( <= ( + Y1 77 ) Y11 )  ( <= ( + Y11 80 ) Y1 )  )
( or ( <= ( + X1 35 ) X12 )  ( <= ( + X12 9 ) X1 )  ( <= ( + Y1 77 ) Y12 )  ( <= ( + Y12 13 ) Y1 )  )
( or ( <= ( + X1 35 ) X13 )  ( <= ( + X13 61 ) X1 )  ( <= ( + Y1 77 ) Y13 )  ( <= ( + Y13 32 ) Y1 )  )
( or ( <= ( + X1 35 ) X14 )  ( <= ( + X14 26 ) X1 )  ( <= ( + Y1 77 ) Y14 )  ( <= ( + Y14 98 ) Y1 )  )
( or ( <= ( + X2 44 ) X3 )  ( <= ( + X3 44 ) X2 )  ( <= ( + Y2 34 ) Y3 )  ( <= ( + Y3 15 ) Y2 )  )
( or ( <= ( + X2 44 ) X4 )  ( <= ( + X4 15 ) X2 )  ( <= ( + Y2 34 ) Y4 )  ( <= ( + Y4 55 ) Y2 )  )
( or ( <= ( + X2 44 ) X5 )  ( <= ( + X5 94 ) X2 )  ( <= ( + Y2 34 ) Y5 )  ( <= ( + Y5 60 ) Y2 )  )
( or ( <= ( + X2 44 ) X6 )  ( <= ( + X6 17 ) X2 )  ( <= ( + Y2 34 ) Y6 )  ( <= ( + Y6 11 ) Y2 )  )
( or ( <= ( + X2 44 ) X7 )  ( <= ( + X7 48 ) X2 )  ( <= ( + Y2 34 ) Y7 )  ( <= ( + Y7 13 ) Y2 )  )
( or ( <= ( + X2 44 ) X8 )  ( <= ( + X8 65 ) X2 )  ( <= ( + Y2 34 ) Y8 )  ( <= ( + Y8 35 ) Y2 )  )
( or ( <= ( + X2 44 ) X9 )  ( <= ( + X9 6 ) X2 )  ( <= ( + Y2 34 ) Y9 )  ( <= ( + Y9 37 ) Y2 )  )
( or ( <= ( + X2 44 ) X10 )  ( <= ( + X10 70 ) X2 )  ( <= ( + Y2 34 ) Y10 )  ( <= ( + Y10 14 ) Y2 )  )
( or ( <= ( + X2 44 ) X11 )  ( <= ( + X11 20 ) X2 )  ( <= ( + Y2 34 ) Y11 )  ( <= ( + Y11 80 ) Y2 )  )
( or ( <= ( + X2 44 ) X12 )  ( <= ( + X12 9 ) X2 )  ( <= ( + Y2 34 ) Y12 )  ( <= ( + Y12 13 ) Y2 )  )
( or ( <= ( + X2 44 ) X13 )  ( <= ( + X13 61 ) X2 )  ( <= ( + Y2 34 ) Y13 )  ( <= ( + Y13 32 ) Y2 )  )
( or ( <= ( + X2 44 ) X14 )  ( <= ( + X14 26 ) X2 )  ( <= ( + Y2 34 ) Y14 )  ( <= ( + Y14 98 ) Y2 )  )
( or ( <= ( + X3 44 ) X4 )  ( <= ( + X4 15 ) X3 )  ( <= ( + Y3 15 ) Y4 )  ( <= ( + Y4 55 ) Y3 )  )
( or ( <= ( + X3 44 ) X5 )  ( <= ( + X5 94 ) X3 )  ( <= ( + Y3 15 ) Y5 )  ( <= ( + Y5 60 ) Y3 )  )
( or ( <= ( + X3 44 ) X6 )  ( <= ( + X6 17 ) X3 )  ( <= ( + Y3 15 ) Y6 )  ( <= ( + Y6 11 ) Y3 )  )
( or ( <= ( + X3 44 ) X7 )  ( <= ( + X7 48 ) X3 )  ( <= ( + Y3 15 ) Y7 )  ( <= ( + Y7 13 ) Y3 )  )
( or ( <= ( + X3 44 ) X8 )  ( <= ( + X8 65 ) X3 )  ( <= ( + Y3 15 ) Y8 )  ( <= ( + Y8 35 ) Y3 )  )
( or ( <= ( + X3 44 ) X9 )  ( <= ( + X9 6 ) X3 )  ( <= ( + Y3 15 ) Y9 )  ( <= ( + Y9 37 ) Y3 )  )
( or ( <= ( + X3 44 ) X10 )  ( <= ( + X10 70 ) X3 )  ( <= ( + Y3 15 ) Y10 )  ( <= ( + Y10 14 ) Y3 )  )
( or ( <= ( + X3 44 ) X11 )  ( <= ( + X11 20 ) X3 )  ( <= ( + Y3 15 ) Y11 )  ( <= ( + Y11 80 ) Y3 )  )
( or ( <= ( + X3 44 ) X12 )  ( <= ( + X12 9 ) X3 )  ( <= ( + Y3 15 ) Y12 )  ( <= ( + Y12 13 ) Y3 )  )
( or ( <= ( + X3 44 ) X13 )  ( <= ( + X13 61 ) X3 )  ( <= ( + Y3 15 ) Y13 )  ( <= ( + Y13 32 ) Y3 )  )
( or ( <= ( + X3 44 ) X14 )  ( <= ( + X14 26 ) X3 )  ( <= ( + Y3 15 ) Y14 )  ( <= ( + Y14 98 ) Y3 )  )
( or ( <= ( + X4 15 ) X5 )  ( <= ( + X5 94 ) X4 )  ( <= ( + Y4 55 ) Y5 )  ( <= ( + Y5 60 ) Y4 )  )
( or ( <= ( + X4 15 ) X6 )  ( <= ( + X6 17 ) X4 )  ( <= ( + Y4 55 ) Y6 )  ( <= ( + Y6 11 ) Y4 )  )
( or ( <= ( + X4 15 ) X7 )  ( <= ( + X7 48 ) X4 )  ( <= ( + Y4 55 ) Y7 )  ( <= ( + Y7 13 ) Y4 )  )
( or ( <= ( + X4 15 ) X8 )  ( <= ( + X8 65 ) X4 )  ( <= ( + Y4 55 ) Y8 )  ( <= ( + Y8 35 ) Y4 )  )
( or ( <= ( + X4 15 ) X9 )  ( <= ( + X9 6 ) X4 )  ( <= ( + Y4 55 ) Y9 )  ( <= ( + Y9 37 ) Y4 )  )
( or ( <= ( + X4 15 ) X10 )  ( <= ( + X10 70 ) X4 )  ( <= ( + Y4 55 ) Y10 )  ( <= ( + Y10 14 ) Y4 )  )
( or ( <= ( + X4 15 ) X11 )  ( <= ( + X11 20 ) X4 )  ( <= ( + Y4 55 ) Y11 )  ( <= ( + Y11 80 ) Y4 )  )
( or ( <= ( + X4 15 ) X12 )  ( <= ( + X12 9 ) X4 )  ( <= ( + Y4 55 ) Y12 )  ( <= ( + Y12 13 ) Y4 )  )
( or ( <= ( + X4 15 ) X13 )  ( <= ( + X13 61 ) X4 )  ( <= ( + Y4 55 ) Y13 )  ( <= ( + Y13 32 ) Y4 )  )
( or ( <= ( + X4 15 ) X14 )  ( <= ( + X14 26 ) X4 )  ( <= ( + Y4 55 ) Y14 )  ( <= ( + Y14 98 ) Y4 )  )
( or ( <= ( + X5 94 ) X6 )  ( <= ( + X6 17 ) X5 )  ( <= ( + Y5 60 ) Y6 )  ( <= ( + Y6 11 ) Y5 )  )
( or ( <= ( + X5 94 ) X7 )  ( <= ( + X7 48 ) X5 )  ( <= ( + Y5 60 ) Y7 )  ( <= ( + Y7 13 ) Y5 )  )
( or ( <= ( + X5 94 ) X8 )  ( <= ( + X8 65 ) X5 )  ( <= ( + Y5 60 ) Y8 )  ( <= ( + Y8 35 ) Y5 )  )
( or ( <= ( + X5 94 ) X9 )  ( <= ( + X9 6 ) X5 )  ( <= ( + Y5 60 ) Y9 )  ( <= ( + Y9 37 ) Y5 )  )
( or ( <= ( + X5 94 ) X10 )  ( <= ( + X10 70 ) X5 )  ( <= ( + Y5 60 ) Y10 )  ( <= ( + Y10 14 ) Y5 )  )
( or ( <= ( + X5 94 ) X11 )  ( <= ( + X11 20 ) X5 )  ( <= ( + Y5 60 ) Y11 )  ( <= ( + Y11 80 ) Y5 )  )
( or ( <= ( + X5 94 ) X12 )  ( <= ( + X12 9 ) X5 )  ( <= ( + Y5 60 ) Y12 )  ( <= ( + Y12 13 ) Y5 )  )
( or ( <= ( + X5 94 ) X13 )  ( <= ( + X13 61 ) X5 )  ( <= ( + Y5 60 ) Y13 )  ( <= ( + Y13 32 ) Y5 )  )
( or ( <= ( + X5 94 ) X14 )  ( <= ( + X14 26 ) X5 )  ( <= ( + Y5 60 ) Y14 )  ( <= ( + Y14 98 ) Y5 )  )
( or ( <= ( + X6 17 ) X7 )  ( <= ( + X7 48 ) X6 )  ( <= ( + Y6 11 ) Y7 )  ( <= ( + Y7 13 ) Y6 )  )
( or ( <= ( + X6 17 ) X8 )  ( <= ( + X8 65 ) X6 )  ( <= ( + Y6 11 ) Y8 )  ( <= ( + Y8 35 ) Y6 )  )
( or ( <= ( + X6 17 ) X9 )  ( <= ( + X9 6 ) X6 )  ( <= ( + Y6 11 ) Y9 )  ( <= ( + Y9 37 ) Y6 )  )
( or ( <= ( + X6 17 ) X10 )  ( <= ( + X10 70 ) X6 )  ( <= ( + Y6 11 ) Y10 )  ( <= ( + Y10 14 ) Y6 )  )
( or ( <= ( + X6 17 ) X11 )  ( <= ( + X11 20 ) X6 )  ( <= ( + Y6 11 ) Y11 )  ( <= ( + Y11 80 ) Y6 )  )
( or ( <= ( + X6 17 ) X12 )  ( <= ( + X12 9 ) X6 )  ( <= ( + Y6 11 ) Y12 )  ( <= ( + Y12 13 ) Y6 )  )
( or ( <= ( + X6 17 ) X13 )  ( <= ( + X13 61 ) X6 )  ( <= ( + Y6 11 ) Y13 )  ( <= ( + Y13 32 ) Y6 )  )
( or ( <= ( + X6 17 ) X14 )  ( <= ( + X14 26 ) X6 )  ( <= ( + Y6 11 ) Y14 )  ( <= ( + Y14 98 ) Y6 )  )
( or ( <= ( + X7 48 ) X8 )  ( <= ( + X8 65 ) X7 )  ( <= ( + Y7 13 ) Y8 )  ( <= ( + Y8 35 ) Y7 )  )
( or ( <= ( + X7 48 ) X9 )  ( <= ( + X9 6 ) X7 )  ( <= ( + Y7 13 ) Y9 )  ( <= ( + Y9 37 ) Y7 )  )
( or ( <= ( + X7 48 ) X10 )  ( <= ( + X10 70 ) X7 )  ( <= ( + Y7 13 ) Y10 )  ( <= ( + Y10 14 ) Y7 )  )
( or ( <= ( + X7 48 ) X11 )  ( <= ( + X11 20 ) X7 )  ( <= ( + Y7 13 ) Y11 )  ( <= ( + Y11 80 ) Y7 )  )
( or ( <= ( + X7 48 ) X12 )  ( <= ( + X12 9 ) X7 )  ( <= ( + Y7 13 ) Y12 )  ( <= ( + Y12 13 ) Y7 )  )
( or ( <= ( + X7 48 ) X13 )  ( <= ( + X13 61 ) X7 )  ( <= ( + Y7 13 ) Y13 )  ( <= ( + Y13 32 ) Y7 )  )
( or ( <= ( + X7 48 ) X14 )  ( <= ( + X14 26 ) X7 )  ( <= ( + Y7 13 ) Y14 )  ( <= ( + Y14 98 ) Y7 )  )
( or ( <= ( + X8 65 ) X9 )  ( <= ( + X9 6 ) X8 )  ( <= ( + Y8 35 ) Y9 )  ( <= ( + Y9 37 ) Y8 )  )
( or ( <= ( + X8 65 ) X10 )  ( <= ( + X10 70 ) X8 )  ( <= ( + Y8 35 ) Y10 )  ( <= ( + Y10 14 ) Y8 )  )
( or ( <= ( + X8 65 ) X11 )  ( <= ( + X11 20 ) X8 )  ( <= ( + Y8 35 ) Y11 )  ( <= ( + Y11 80 ) Y8 )  )
( or ( <= ( + X8 65 ) X12 )  ( <= ( + X12 9 ) X8 )  ( <= ( + Y8 35 ) Y12 )  ( <= ( + Y12 13 ) Y8 )  )
( or ( <= ( + X8 65 ) X13 )  ( <= ( + X13 61 ) X8 )  ( <= ( + Y8 35 ) Y13 )  ( <= ( + Y13 32 ) Y8 )  )
( or ( <= ( + X8 65 ) X14 )  ( <= ( + X14 26 ) X8 )  ( <= ( + Y8 35 ) Y14 )  ( <= ( + Y14 98 ) Y8 )  )
( or ( <= ( + X9 6 ) X10 )  ( <= ( + X10 70 ) X9 )  ( <= ( + Y9 37 ) Y10 )  ( <= ( + Y10 14 ) Y9 )  )
( or ( <= ( + X9 6 ) X11 )  ( <= ( + X11 20 ) X9 )  ( <= ( + Y9 37 ) Y11 )  ( <= ( + Y11 80 ) Y9 )  )
( or ( <= ( + X9 6 ) X12 )  ( <= ( + X12 9 ) X9 )  ( <= ( + Y9 37 ) Y12 )  ( <= ( + Y12 13 ) Y9 )  )
( or ( <= ( + X9 6 ) X13 )  ( <= ( + X13 61 ) X9 )  ( <= ( + Y9 37 ) Y13 )  ( <= ( + Y13 32 ) Y9 )  )
( or ( <= ( + X9 6 ) X14 )  ( <= ( + X14 26 ) X9 )  ( <= ( + Y9 37 ) Y14 )  ( <= ( + Y14 98 ) Y9 )  )
( or ( <= ( + X10 70 ) X11 )  ( <= ( + X11 20 ) X10 )  ( <= ( + Y10 14 ) Y11 )  ( <= ( + Y11 80 ) Y10 )  )
( or ( <= ( + X10 70 ) X12 )  ( <= ( + X12 9 ) X10 )  ( <= ( + Y10 14 ) Y12 )  ( <= ( + Y12 13 ) Y10 )  )
( or ( <= ( + X10 70 ) X13 )  ( <= ( + X13 61 ) X10 )  ( <= ( + Y10 14 ) Y13 )  ( <= ( + Y13 32 ) Y10 )  )
( or ( <= ( + X10 70 ) X14 )  ( <= ( + X14 26 ) X10 )  ( <= ( + Y10 14 ) Y14 )  ( <= ( + Y14 98 ) Y10 )  )
( or ( <= ( + X11 20 ) X12 )  ( <= ( + X12 9 ) X11 )  ( <= ( + Y11 80 ) Y12 )  ( <= ( + Y12 13 ) Y11 )  )
( or ( <= ( + X11 20 ) X13 )  ( <= ( + X13 61 ) X11 )  ( <= ( + Y11 80 ) Y13 )  ( <= ( + Y13 32 ) Y11 )  )
( or ( <= ( + X11 20 ) X14 )  ( <= ( + X14 26 ) X11 )  ( <= ( + Y11 80 ) Y14 )  ( <= ( + Y14 98 ) Y11 )  )
( or ( <= ( + X12 9 ) X13 )  ( <= ( + X13 61 ) X12 )  ( <= ( + Y12 13 ) Y13 )  ( <= ( + Y13 32 ) Y12 )  )
( or ( <= ( + X12 9 ) X14 )  ( <= ( + X14 26 ) X12 )  ( <= ( + Y12 13 ) Y14 )  ( <= ( + Y14 98 ) Y12 )  )
( or ( <= ( + X13 61 ) X14 )  ( <= ( + X14 26 ) X13 )  ( <= ( + Y13 32 ) Y14 )  ( <= ( + Y14 98 ) Y13 )  )
( >= X0 0)
( <= ( + X0 88) Z)
( >= Y0 0)
( <= ( + Y0 77 ) 100)
( >= X1 0)
( <= ( + X1 35) Z)
( >= Y1 0)
( <= ( + Y1 77 ) 100)
( >= X2 0)
( <= ( + X2 44) Z)
( >= Y2 0)
( <= ( + Y2 34 ) 100)
( >= X3 0)
( <= ( + X3 44) Z)
( >= Y3 0)
( <= ( + Y3 15 ) 100)
( >= X4 0)
( <= ( + X4 15) Z)
( >= Y4 0)
( <= ( + Y4 55 ) 100)
( >= X5 0)
( <= ( + X5 94) Z)
( >= Y5 0)
( <= ( + Y5 60 ) 100)
( >= X6 0)
( <= ( + X6 17) Z)
( >= Y6 0)
( <= ( + Y6 11 ) 100)
( >= X7 0)
( <= ( + X7 48) Z)
( >= Y7 0)
( <= ( + Y7 13 ) 100)
( >= X8 0)
( <= ( + X8 65) Z)
( >= Y8 0)
( <= ( + Y8 35 ) 100)
( >= X9 0)
( <= ( + X9 6) Z)
( >= Y9 0)
( <= ( + Y9 37 ) 100)
( >= X10 0)
( <= ( + X10 70) Z)
( >= Y10 0)
( <= ( + Y10 14 ) 100)
( >= X11 0)
( <= ( + X11 20) Z)
( >= Y11 0)
( <= ( + Y11 80 ) 100)
( >= X12 0)
( <= ( + X12 9) Z)
( >= Y12 0)
( <= ( + Y12 13 ) 100)
( >= X13 0)
( <= ( + X13 61) Z)
( >= Y13 0)
( <= ( + Y13 32 ) 100)
( >= X14 0)
( <= ( + X14 26) Z)
( >= Y14 0)
( <= ( + Y14 98 ) 100)
) )
)(=> $phi $goal))))